c This cnf file is generated with the following input: k = 3, n = 150, r = 0.2
p cnf 150 30
33 -116 108 0
-69 138 61 0
-102 -135 -61 0
-85 -56 93 0
145 -67 15 0
-51 -85 -127 0
-17 149 31 0
86 -122 -44 0
-73 -89 -90 0
-87 10 -14 0
-115 -134 119 0
-146 -34 52 0
3 87 -64 0
-67 51 -141 0
56 -123 94 0
-35 107 -16 0
-83 44 61 0
28 62 -96 0
-37 28 -144 0
145 -131 140 0
2 -46 -110 0
-22 -42 123 0
-1 -70 -79 0
17 -7 72 0
-99 89 -76 0
-130 -116 77 0
115 40 57 0
-147 -124 -44 0
-53 13 78 0
43 -111 -96 0
